36
6
0 6 7 13 14 16 17 18 19 23 24 25 27 30 32 33 34 35
1 6 9 10 11 13 16 17 19 22 26 28 31 32 33 35
2 7 9 11 13 14 15 16 17 18 19 22 23 24 30 31 32 35
3 6 8 9 12 14 15 23 25 30 32 33 35
4 7 9 10 11 13 16 17 21 22 28 32 33 35
5 15 20 22 24 29 32
